! MP2 6-311G(d) Opt NoFrozenCore ExtremeSCF

%geom
 MaxIter 1
 inhess unit
 MaxStep 0.01                              
 Convergence tight
 Trust 0.1
end

%mp2 MaxCore 5000
end

*xyzfile -1 1 inp.xyz
