! MP2 6-311G(d) Opt NoFrozenCore ExtremeSCF

%pal nprocs 1
end

%mp2 MaxCore 5000
end

*xyzfile 0 1 inp.xyz
