! MP2 6-311G(d) NoFrozenCore ExtremeSCF Opt

%geom
MaxIter 3000
inhess unit
MaxStep 0.01
Trust 0.1
end

%mp2 MaxCore 5000
end

*xyzfile -1 1 inp.xyz
