! MP2 6-311G(d) OptTS NoFrozenCore ExtremeSCF

%pal nprocs 1
end

%mp2 MaxCore 5000
end

*xyzfile -1 1 inp.xyz 
