&GLOBAL
  PROJECT tsA
  RUN_TYPE GEO_OPT
&END GLOBAL

&FORCE_EVAL
  METHOD Quickstep
  &DFT 
      BASIS_SET_FILE_NAME GTH_BASIS_SETS 
      POTENTIAL_FILE_NAME GTH_POTENTIALS 
    &QS
      EXTRAPOLATION_ORDER 3
    &END QS

    &SCF
      MAX_SCF 60
      EPS_SCF 1.0E-6
      SCF_GUESS ATOMIC
      &OT
        PRECONDITIONER FULL_SINGLE_INVERSE
        MINIMIZER DIIS
      &END OT

      &OUTER_SCF
        MAX_SCF 10
        EPS_SCF 1.0E-06
      &END OUTER_SCF
      &PRINT
      &END
     &END SCF
     &XC
      &XC_FUNCTIONAL PADE
      &END XC_FUNCTIONAL
     &END XC
     &POISSON
       POISSON_SOLVER MT
       PERIODIC NONE
       &MT
       &END
     &END


  &END DFT

  &SUBSYS
    &CELL
      ABC 10.00 10.00 10.00
      PERIODIC NONE
    &END CELL

    #TODO: COORDINATES HERE

    
    #TODO: ADJUST KINDs HERE

    &KIND C
      BASIS_SET DZVP-GTH
      POTENTIAL GTH-PADE-q4
    &END KIND

    &KIND H
      BASIS_SET DZVP-GTH
      POTENTIAL GTH-PADE-q1
    &END KIND

  &END SUBSYS

&END FORCE_EVAL


&MOTION
  &GEO_OPT
    TYPE TRANSITION_STATE
    MAX_ITER 1000
    OPTIMIZER CG
    &CG
      MAX_STEEP_STEPS 1
      &LINE_SEARCH
        TYPE 2PNT
      &END LINE_SEARCH
    &END CG

  &END GEO_OPT
  &PRINT
    &RESTART
       &EACH
         GEO_OPT    1
       &END
    &END
    &FORCES
       FILENAME forces
       &EACH
         GEO_OPT    1
       &END
    &END FORCES
    &TRAJECTORY
       FILENAME coord
       &EACH
         GEO_OPT    1
       &END
    &END TRAJECTORY
  &END
&END MOTION